Maximize
 0
Subject To
 epc_0!1: -91.51695104128474 y_1!1_2!1 -4.341973811201669 y_1!2_2!1 -65.84859201643542 y_1!3_2!1 -63.39840108252146 y_1!4_2!1 +45.86788939118043 y_1!5_2!1 +64.91500999065349 y_1!1_2!2 -46.615698173008035 y_1!2_2!2 +41.14863852128795 y_1!3_2!2 +69.0784536059522 y_1!4_2!2 +58.57895584269437 y_1!5_2!2 +26.65020249613741 y_1!1_2!3 +32.41132789644428 y_1!2_2!3 +26.922801715879658 y_1!3_2!3 -35.453418039390144 y_1!4_2!3 +99.51304567769276 y_1!5_2!3 -97.161194989725 y_1!1_2!4 +90.72583220175306 y_1!2_2!4 +50.68981131178015 y_1!3_2!4 +29.579018990531694 y_1!4_2!4 +52.299719623670825 y_1!5_2!4 -30.837405351548114 y_1!1_2!5 +38.149768079477354 y_1!2_2!5 -57.25423487549999 y_1!3_2!5 +55.934641326828284 y_1!4_2!5 +65.70579749270203 y_1!5_2!5 + lambda_0!1 - mu_0 = 0
 epc_0!2: +41.2003725694496 y_1!1_2!1 -16.813498101532986 y_1!2_2!1 +86.38287416270654 y_1!3_2!1 +84.0422209503381 y_1!4_2!1 -72.38761076994308 y_1!5_2!1 -17.699678972272736 y_1!1_2!2 -32.28440308800134 y_1!2_2!2 +63.01281387279985 y_1!3_2!2 -59.394209051945346 y_1!4_2!2 -76.62907644702015 y_1!5_2!2 +83.60837907357822 y_1!1_2!3 -30.19095537233558 y_1!2_2!3 -82.19054623030335 y_1!3_2!3 -53.82156968632816 y_1!4_2!3 +43.10982579446102 y_1!5_2!3 +4.931530924090637 y_1!1_2!4 -19.914347077561317 y_1!2_2!4 -11.104716780167777 y_1!3_2!4 +51.466321751409254 y_1!4_2!4 +93.95583698607373 y_1!5_2!4 +5.516590795108357 y_1!1_2!5 -67.75733403296702 y_1!2_2!5 +89.70519112092009 y_1!3_2!5 +69.97519048327757 y_1!4_2!5 -82.01762137242288 y_1!5_2!5 + lambda_0!2 - mu_0 = 0
 epc_0!3: +60.51646534222587 y_1!1_2!1 +51.284413951656035 y_1!2_2!1 -43.81765445969001 y_1!3_2!1 +48.311692139699716 y_1!4_2!1 +55.51791869950375 y_1!5_2!1 -97.14666747097378 y_1!1_2!2 -47.429396874809825 y_1!2_2!2 +78.65738279209592 y_1!3_2!2 +13.682674629645248 y_1!4_2!2 -38.889468178554324 y_1!5_2!2 +57.42153546359668 y_1!1_2!3 +91.68856017649225 y_1!2_2!3 +56.5283223734063 y_1!3_2!3 -72.6924648414335 y_1!4_2!3 +18.91697374868096 y_1!5_2!3 +29.954114301346237 y_1!1_2!4 +90.88647927954787 y_1!2_2!4 -95.92546195136057 y_1!3_2!4 +39.805794177267074 y_1!4_2!4 +56.554159053683605 y_1!5_2!4 -78.74184029262557 y_1!1_2!5 -39.17508245164976 y_1!2_2!5 +82.02815199216366 y_1!3_2!5 +51.17322916338267 y_1!4_2!5 -30.205040998368716 y_1!5_2!5 + lambda_0!3 - mu_0 = 0
 epc_0!4: -11.91275925595275 y_1!1_2!1 -5.044671786621294 y_1!2_2!1 -73.04974489473047 y_1!3_2!1 +9.407659649874205 y_1!4_2!1 +33.84732122691506 y_1!5_2!1 +17.94315918938443 y_1!1_2!2 +17.142016836580382 y_1!2_2!2 +4.17792543155204 y_1!3_2!2 -3.4458927587523505 y_1!4_2!2 -12.196788611787056 y_1!5_2!2 -19.96966086601539 y_1!1_2!3 +30.27926561708668 y_1!2_2!3 +1.7274168297135617 y_1!3_2!3 -67.99801821122178 y_1!4_2!3 -4.778062405055806 y_1!5_2!3 -39.461045726699155 y_1!1_2!4 +24.710808244595015 y_1!2_2!4 +53.887355868420514 y_1!3_2!4 +24.850473198409404 y_1!4_2!4 -94.69874063072261 y_1!5_2!4 -32.64477037101368 y_1!1_2!5 +28.360315637079538 y_1!2_2!5 +24.261053982718522 y_1!3_2!5 +3.268679104797471 y_1!4_2!5 -87.03713391932659 y_1!5_2!5 + lambda_0!4 - mu_0 = 0
 epc_0!5: +84.59267892908767 y_1!1_2!1 +69.41284450746667 y_1!2_2!1 +0.5412956732633347 y_1!3_2!1 -90.82655200745928 y_1!4_2!1 -45.40605281839969 y_1!5_2!1 +94.32395539304372 y_1!1_2!2 +70.34540051590145 y_1!2_2!2 +68.87512735192621 y_1!3_2!2 +42.85602369748483 y_1!4_2!2 -25.372841723188273 y_1!5_2!2 +66.97119111118408 y_1!1_2!3 +60.72636458435679 y_1!2_2!3 +93.67205735511865 y_1!3_2!3 +54.96938676978334 y_1!4_2!3 +82.2755621442968 y_1!5_2!3 -21.044552282732653 y_1!1_2!4 +14.822148078316872 y_1!2_2!4 -64.73983029788495 y_1!3_2!4 +57.85945024938863 y_1!4_2!4 +8.199516910559197 y_1!5_2!4 -26.411784932137223 y_1!1_2!5 -98.55434353575683 y_1!2_2!5 -16.10311092213759 y_1!3_2!5 -78.90037626040478 y_1!4_2!5 +23.462843980893155 y_1!5_2!5 + lambda_0!5 - mu_0 = 0
 dc_0: x_0!1 + x_0!2 + x_0!3 + x_0!4 + x_0!5 = 1
 bc_0!1: lambda_0!1 +298.0673892134496 x_0!1 <= 298.0673892134496
 bc_0!2: lambda_0!2 +298.0673892134496 x_0!2 <= 298.0673892134496
 bc_0!3: lambda_0!3 +298.0673892134496 x_0!3 <= 298.0673892134496
 bc_0!4: lambda_0!4 +298.0673892134496 x_0!4 <= 298.0673892134496
 bc_0!5: lambda_0!5 +298.0673892134496 x_0!5 <= 298.0673892134496
 sum_0!1: y_1!1_2!1 - x_1!1 - x_2!1 >= -1
 idk_0!1!1: y_1!1_2!1 - x_1!1 <= 0
 idk_0!1!2: y_1!1_2!1 - x_2!1 <= 0
 sum_0!2: y_1!2_2!1 - x_1!2 - x_2!1 >= -1
 idk_0!2!1: y_1!2_2!1 - x_1!2 <= 0
 idk_0!2!2: y_1!2_2!1 - x_2!1 <= 0
 sum_0!3: y_1!3_2!1 - x_1!3 - x_2!1 >= -1
 idk_0!3!1: y_1!3_2!1 - x_1!3 <= 0
 idk_0!3!2: y_1!3_2!1 - x_2!1 <= 0
 sum_0!4: y_1!4_2!1 - x_1!4 - x_2!1 >= -1
 idk_0!4!1: y_1!4_2!1 - x_1!4 <= 0
 idk_0!4!2: y_1!4_2!1 - x_2!1 <= 0
 sum_0!5: y_1!5_2!1 - x_1!5 - x_2!1 >= -1
 idk_0!5!1: y_1!5_2!1 - x_1!5 <= 0
 idk_0!5!2: y_1!5_2!1 - x_2!1 <= 0
 sum_0!6: y_1!1_2!2 - x_1!1 - x_2!2 >= -1
 idk_0!6!1: y_1!1_2!2 - x_1!1 <= 0
 idk_0!6!2: y_1!1_2!2 - x_2!2 <= 0
 sum_0!7: y_1!2_2!2 - x_1!2 - x_2!2 >= -1
 idk_0!7!1: y_1!2_2!2 - x_1!2 <= 0
 idk_0!7!2: y_1!2_2!2 - x_2!2 <= 0
 sum_0!8: y_1!3_2!2 - x_1!3 - x_2!2 >= -1
 idk_0!8!1: y_1!3_2!2 - x_1!3 <= 0
 idk_0!8!2: y_1!3_2!2 - x_2!2 <= 0
 sum_0!9: y_1!4_2!2 - x_1!4 - x_2!2 >= -1
 idk_0!9!1: y_1!4_2!2 - x_1!4 <= 0
 idk_0!9!2: y_1!4_2!2 - x_2!2 <= 0
 sum_0!10: y_1!5_2!2 - x_1!5 - x_2!2 >= -1
 idk_0!10!1: y_1!5_2!2 - x_1!5 <= 0
 idk_0!10!2: y_1!5_2!2 - x_2!2 <= 0
 sum_0!11: y_1!1_2!3 - x_1!1 - x_2!3 >= -1
 idk_0!11!1: y_1!1_2!3 - x_1!1 <= 0
 idk_0!11!2: y_1!1_2!3 - x_2!3 <= 0
 sum_0!12: y_1!2_2!3 - x_1!2 - x_2!3 >= -1
 idk_0!12!1: y_1!2_2!3 - x_1!2 <= 0
 idk_0!12!2: y_1!2_2!3 - x_2!3 <= 0
 sum_0!13: y_1!3_2!3 - x_1!3 - x_2!3 >= -1
 idk_0!13!1: y_1!3_2!3 - x_1!3 <= 0
 idk_0!13!2: y_1!3_2!3 - x_2!3 <= 0
 sum_0!14: y_1!4_2!3 - x_1!4 - x_2!3 >= -1
 idk_0!14!1: y_1!4_2!3 - x_1!4 <= 0
 idk_0!14!2: y_1!4_2!3 - x_2!3 <= 0
 sum_0!15: y_1!5_2!3 - x_1!5 - x_2!3 >= -1
 idk_0!15!1: y_1!5_2!3 - x_1!5 <= 0
 idk_0!15!2: y_1!5_2!3 - x_2!3 <= 0
 sum_0!16: y_1!1_2!4 - x_1!1 - x_2!4 >= -1
 idk_0!16!1: y_1!1_2!4 - x_1!1 <= 0
 idk_0!16!2: y_1!1_2!4 - x_2!4 <= 0
 sum_0!17: y_1!2_2!4 - x_1!2 - x_2!4 >= -1
 idk_0!17!1: y_1!2_2!4 - x_1!2 <= 0
 idk_0!17!2: y_1!2_2!4 - x_2!4 <= 0
 sum_0!18: y_1!3_2!4 - x_1!3 - x_2!4 >= -1
 idk_0!18!1: y_1!3_2!4 - x_1!3 <= 0
 idk_0!18!2: y_1!3_2!4 - x_2!4 <= 0
 sum_0!19: y_1!4_2!4 - x_1!4 - x_2!4 >= -1
 idk_0!19!1: y_1!4_2!4 - x_1!4 <= 0
 idk_0!19!2: y_1!4_2!4 - x_2!4 <= 0
 sum_0!20: y_1!5_2!4 - x_1!5 - x_2!4 >= -1
 idk_0!20!1: y_1!5_2!4 - x_1!5 <= 0
 idk_0!20!2: y_1!5_2!4 - x_2!4 <= 0
 sum_0!21: y_1!1_2!5 - x_1!1 - x_2!5 >= -1
 idk_0!21!1: y_1!1_2!5 - x_1!1 <= 0
 idk_0!21!2: y_1!1_2!5 - x_2!5 <= 0
 sum_0!22: y_1!2_2!5 - x_1!2 - x_2!5 >= -1
 idk_0!22!1: y_1!2_2!5 - x_1!2 <= 0
 idk_0!22!2: y_1!2_2!5 - x_2!5 <= 0
 sum_0!23: y_1!3_2!5 - x_1!3 - x_2!5 >= -1
 idk_0!23!1: y_1!3_2!5 - x_1!3 <= 0
 idk_0!23!2: y_1!3_2!5 - x_2!5 <= 0
 sum_0!24: y_1!4_2!5 - x_1!4 - x_2!5 >= -1
 idk_0!24!1: y_1!4_2!5 - x_1!4 <= 0
 idk_0!24!2: y_1!4_2!5 - x_2!5 <= 0
 sum_0!25: y_1!5_2!5 - x_1!5 - x_2!5 >= -1
 idk_0!25!1: y_1!5_2!5 - x_1!5 <= 0
 idk_0!25!2: y_1!5_2!5 - x_2!5 <= 0
 epc_1!1: -5.887588265428917 y_0!1_2!1 -19.92321768418222 y_0!2_2!1 +19.73743928145268 y_0!3_2!1 -83.96986420606423 y_0!4_2!1 -18.312792866950886 y_0!5_2!1 +28.022890310358775 y_0!1_2!2 +16.404053779863247 y_0!2_2!2 +96.30736650590151 y_0!3_2!2 -32.20089939249743 y_0!4_2!2 +35.52353320941094 y_0!5_2!2 -67.22779896152993 y_0!1_2!3 +77.86493152500483 y_0!2_2!3 +34.078892605932936 y_0!3_2!3 -45.42793195040397 y_0!4_2!3 -51.368298538535306 y_0!5_2!3 +10.372391530288041 y_0!1_2!4 -59.42248270821615 y_0!2_2!4 -79.28314790567872 y_0!3_2!4 -88.63663658507434 y_0!4_2!4 +2.1878635480821345 y_0!5_2!4 +75.03334138989848 y_0!1_2!5 +9.136532898683654 y_0!2_2!5 +51.07493193166653 y_0!3_2!5 -41.44752455409062 y_0!4_2!5 -83.28819382597783 y_0!5_2!5 + lambda_1!1 - mu_1 = 0
 epc_1!2: -6.633952240080603 y_0!1_2!1 +99.36281176018832 y_0!2_2!1 +92.60081149915081 y_0!3_2!1 -72.11233162718548 y_0!4_2!1 -65.5748068981224 y_0!5_2!1 +65.14661508290737 y_0!1_2!2 +65.20910146704034 y_0!2_2!2 +59.69449801188554 y_0!3_2!2 +21.50463530237039 y_0!4_2!2 -23.63448829199119 y_0!5_2!2 +71.7671448187372 y_0!1_2!3 +59.08642053083085 y_0!2_2!3 -66.60852527764524 y_0!3_2!3 -23.026184978860925 y_0!4_2!3 -64.25856903080512 y_0!5_2!3 -89.64738517112885 y_0!1_2!4 -27.219176802623252 y_0!2_2!4 -54.13550388363595 y_0!3_2!4 -51.02935692567523 y_0!4_2!4 +95.32761500590553 y_0!5_2!4 +43.6073276683569 y_0!1_2!5 -86.60080637585723 y_0!2_2!5 +78.7665393854665 y_0!3_2!5 -36.536602734648625 y_0!4_2!5 +18.359981317047342 y_0!5_2!5 + lambda_1!2 - mu_1 = 0
 epc_1!3: +31.2768734313361 y_0!1_2!1 +94.39691859440978 y_0!2_2!1 +34.41292136217848 y_0!3_2!1 +54.56902573120135 y_0!4_2!1 +58.90772476286037 y_0!5_2!1 -40.91214464894448 y_0!1_2!2 +25.816545957686458 y_0!2_2!2 -63.21753675903432 y_0!3_2!2 -29.52052676866863 y_0!4_2!2 +9.87231058470968 y_0!5_2!2 +51.92668420762652 y_0!1_2!3 -5.344131423785242 y_0!2_2!3 +44.40021481077156 y_0!3_2!3 -43.032837374494484 y_0!4_2!3 +70.0273720514374 y_0!5_2!3 -1.80111784837284 y_0!1_2!4 -71.68078186252245 y_0!2_2!4 +56.173573876398905 y_0!3_2!4 -46.588238511230394 y_0!4_2!4 -2.456222207826954 y_0!5_2!4 +1.1129823976822308 y_0!1_2!5 -31.65324159478908 y_0!2_2!5 -43.849249887442674 y_0!3_2!5 +62.09102735059716 y_0!4_2!5 -78.30522453541677 y_0!5_2!5 + lambda_1!3 - mu_1 = 0
 epc_1!4: +33.34975112461825 y_0!1_2!1 -84.20634484878258 y_0!2_2!1 +48.91304863382041 y_0!3_2!1 +6.383680005427237 y_0!4_2!1 -13.24013891323466 y_0!5_2!1 +14.12965513611806 y_0!1_2!2 -73.0336602381022 y_0!2_2!2 +37.3884679199474 y_0!3_2!2 +23.300371796124693 y_0!4_2!2 -5.156100406162437 y_0!5_2!2 -57.357688394360665 y_0!1_2!3 +66.69908158535648 y_0!2_2!3 -72.53416265792067 y_0!3_2!3 -56.95659341641797 y_0!4_2!3 -37.91190713264141 y_0!5_2!3 +13.717196325565467 y_0!1_2!4 +71.94597330294135 y_0!2_2!4 -56.46449076167488 y_0!3_2!4 -56.13016873544909 y_0!4_2!4 +39.92406198054334 y_0!5_2!4 -14.028919303560244 y_0!1_2!5 +70.28945757423392 y_0!2_2!5 -51.80218569794697 y_0!3_2!5 -43.52689014603084 y_0!4_2!5 +82.48298713166545 y_0!5_2!5 + lambda_1!4 - mu_1 = 0
 epc_1!5: -72.76332249025495 y_0!1_2!1 -31.079998583646187 y_0!2_2!1 +13.498071298477242 y_0!3_2!1 -31.990198506952794 y_0!4_2!1 -63.628494645737675 y_0!5_2!1 -11.51986473042659 y_0!1_2!2 +13.20756007617669 y_0!2_2!2 -65.4075062097995 y_0!3_2!2 -3.9685481793288773 y_0!4_2!2 +16.940045703189412 y_0!5_2!2 +91.73761690061224 y_0!1_2!3 +64.00742909973866 y_0!2_2!3 +67.43599802903486 y_0!3_2!3 -6.326127714669624 y_0!4_2!3 +83.32379969868592 y_0!5_2!3 +98.98296058258018 y_0!1_2!4 -64.77754231584898 y_0!2_2!4 +43.08947748572595 y_0!3_2!4 -11.617003998957316 y_0!4_2!4 -38.74758457736329 y_0!5_2!4 +57.58071290945642 y_0!1_2!5 -28.725956308079546 y_0!2_2!5 +29.58892267990589 y_0!3_2!5 +62.13712419705618 y_0!4_2!5 +84.31840851268436 y_0!5_2!5 + lambda_1!5 - mu_1 = 0
 dc_1: x_1!1 + x_1!2 + x_1!3 + x_1!4 + x_1!5 = 1
 bc_1!1: lambda_1!1 +298.0673892134496 x_1!1 <= 298.0673892134496
 bc_1!2: lambda_1!2 +298.0673892134496 x_1!2 <= 298.0673892134496
 bc_1!3: lambda_1!3 +298.0673892134496 x_1!3 <= 298.0673892134496
 bc_1!4: lambda_1!4 +298.0673892134496 x_1!4 <= 298.0673892134496
 bc_1!5: lambda_1!5 +298.0673892134496 x_1!5 <= 298.0673892134496
 sum_1!1: y_0!1_2!1 - x_0!1 - x_2!1 >= -1
 idk_1!1!0: y_0!1_2!1 - x_0!1 <= 0
 idk_1!1!2: y_0!1_2!1 - x_2!1 <= 0
 sum_1!2: y_0!2_2!1 - x_0!2 - x_2!1 >= -1
 idk_1!2!0: y_0!2_2!1 - x_0!2 <= 0
 idk_1!2!2: y_0!2_2!1 - x_2!1 <= 0
 sum_1!3: y_0!3_2!1 - x_0!3 - x_2!1 >= -1
 idk_1!3!0: y_0!3_2!1 - x_0!3 <= 0
 idk_1!3!2: y_0!3_2!1 - x_2!1 <= 0
 sum_1!4: y_0!4_2!1 - x_0!4 - x_2!1 >= -1
 idk_1!4!0: y_0!4_2!1 - x_0!4 <= 0
 idk_1!4!2: y_0!4_2!1 - x_2!1 <= 0
 sum_1!5: y_0!5_2!1 - x_0!5 - x_2!1 >= -1
 idk_1!5!0: y_0!5_2!1 - x_0!5 <= 0
 idk_1!5!2: y_0!5_2!1 - x_2!1 <= 0
 sum_1!6: y_0!1_2!2 - x_0!1 - x_2!2 >= -1
 idk_1!6!0: y_0!1_2!2 - x_0!1 <= 0
 idk_1!6!2: y_0!1_2!2 - x_2!2 <= 0
 sum_1!7: y_0!2_2!2 - x_0!2 - x_2!2 >= -1
 idk_1!7!0: y_0!2_2!2 - x_0!2 <= 0
 idk_1!7!2: y_0!2_2!2 - x_2!2 <= 0
 sum_1!8: y_0!3_2!2 - x_0!3 - x_2!2 >= -1
 idk_1!8!0: y_0!3_2!2 - x_0!3 <= 0
 idk_1!8!2: y_0!3_2!2 - x_2!2 <= 0
 sum_1!9: y_0!4_2!2 - x_0!4 - x_2!2 >= -1
 idk_1!9!0: y_0!4_2!2 - x_0!4 <= 0
 idk_1!9!2: y_0!4_2!2 - x_2!2 <= 0
 sum_1!10: y_0!5_2!2 - x_0!5 - x_2!2 >= -1
 idk_1!10!0: y_0!5_2!2 - x_0!5 <= 0
 idk_1!10!2: y_0!5_2!2 - x_2!2 <= 0
 sum_1!11: y_0!1_2!3 - x_0!1 - x_2!3 >= -1
 idk_1!11!0: y_0!1_2!3 - x_0!1 <= 0
 idk_1!11!2: y_0!1_2!3 - x_2!3 <= 0
 sum_1!12: y_0!2_2!3 - x_0!2 - x_2!3 >= -1
 idk_1!12!0: y_0!2_2!3 - x_0!2 <= 0
 idk_1!12!2: y_0!2_2!3 - x_2!3 <= 0
 sum_1!13: y_0!3_2!3 - x_0!3 - x_2!3 >= -1
 idk_1!13!0: y_0!3_2!3 - x_0!3 <= 0
 idk_1!13!2: y_0!3_2!3 - x_2!3 <= 0
 sum_1!14: y_0!4_2!3 - x_0!4 - x_2!3 >= -1
 idk_1!14!0: y_0!4_2!3 - x_0!4 <= 0
 idk_1!14!2: y_0!4_2!3 - x_2!3 <= 0
 sum_1!15: y_0!5_2!3 - x_0!5 - x_2!3 >= -1
 idk_1!15!0: y_0!5_2!3 - x_0!5 <= 0
 idk_1!15!2: y_0!5_2!3 - x_2!3 <= 0
 sum_1!16: y_0!1_2!4 - x_0!1 - x_2!4 >= -1
 idk_1!16!0: y_0!1_2!4 - x_0!1 <= 0
 idk_1!16!2: y_0!1_2!4 - x_2!4 <= 0
 sum_1!17: y_0!2_2!4 - x_0!2 - x_2!4 >= -1
 idk_1!17!0: y_0!2_2!4 - x_0!2 <= 0
 idk_1!17!2: y_0!2_2!4 - x_2!4 <= 0
 sum_1!18: y_0!3_2!4 - x_0!3 - x_2!4 >= -1
 idk_1!18!0: y_0!3_2!4 - x_0!3 <= 0
 idk_1!18!2: y_0!3_2!4 - x_2!4 <= 0
 sum_1!19: y_0!4_2!4 - x_0!4 - x_2!4 >= -1
 idk_1!19!0: y_0!4_2!4 - x_0!4 <= 0
 idk_1!19!2: y_0!4_2!4 - x_2!4 <= 0
 sum_1!20: y_0!5_2!4 - x_0!5 - x_2!4 >= -1
 idk_1!20!0: y_0!5_2!4 - x_0!5 <= 0
 idk_1!20!2: y_0!5_2!4 - x_2!4 <= 0
 sum_1!21: y_0!1_2!5 - x_0!1 - x_2!5 >= -1
 idk_1!21!0: y_0!1_2!5 - x_0!1 <= 0
 idk_1!21!2: y_0!1_2!5 - x_2!5 <= 0
 sum_1!22: y_0!2_2!5 - x_0!2 - x_2!5 >= -1
 idk_1!22!0: y_0!2_2!5 - x_0!2 <= 0
 idk_1!22!2: y_0!2_2!5 - x_2!5 <= 0
 sum_1!23: y_0!3_2!5 - x_0!3 - x_2!5 >= -1
 idk_1!23!0: y_0!3_2!5 - x_0!3 <= 0
 idk_1!23!2: y_0!3_2!5 - x_2!5 <= 0
 sum_1!24: y_0!4_2!5 - x_0!4 - x_2!5 >= -1
 idk_1!24!0: y_0!4_2!5 - x_0!4 <= 0
 idk_1!24!2: y_0!4_2!5 - x_2!5 <= 0
 sum_1!25: y_0!5_2!5 - x_0!5 - x_2!5 >= -1
 idk_1!25!0: y_0!5_2!5 - x_0!5 <= 0
 idk_1!25!2: y_0!5_2!5 - x_2!5 <= 0
 epc_2!1: -92.33393933576815 y_0!1_1!1 +70.44145757748927 y_0!2_1!1 -58.684915190812205 y_0!3_1!1 +1.839018229946106 y_0!4_1!1 +37.56870807972007 y_0!5_1!1 +55.755005939271285 y_0!1_1!2 -89.41158943494224 y_0!2_1!2 -35.610023156067 y_0!3_1!2 +73.3406432850351 y_0!4_1!2 -16.675102323642662 y_0!5_1!2 +76.51765719067666 y_0!1_1!3 -51.120291245486136 y_0!2_1!3 -89.8857074178419 y_0!3_1!3 +63.43940187905764 y_0!4_1!3 +5.819745188819354 y_0!5_1!3 +61.458031391289296 y_0!1_1!4 +32.48279496745249 y_0!2_1!4 +81.71849973345104 y_0!3_1!4 -94.10172429442669 y_0!4_1!4 -4.937457148298208 y_0!5_1!4 +82.76868842114123 y_0!1_1!5 +98.12529234186997 y_0!2_1!5 -31.48065863383505 y_0!3_1!5 -58.59956015903565 y_0!4_1!5 +28.164381581258795 y_0!5_1!5 + lambda_2!1 - mu_2 = 0
 epc_2!2: -5.109659789706853 y_0!1_1!1 +83.9869353687366 y_0!2_1!1 -80.80130669950833 y_0!3_1!1 -54.36517369816782 y_0!4_1!1 -21.383633045307818 y_0!5_1!1 -73.55336587970179 y_0!1_1!2 -48.17808733647122 y_0!2_1!2 -69.61321176412653 y_0!3_1!2 -66.5677703387427 y_0!4_1!2 +69.7352630061973 y_0!5_1!2 -84.16612372199069 y_0!1_1!3 -85.62670731056532 y_0!2_1!3 -42.58349906944243 y_0!3_1!3 -54.26662410229757 y_0!4_1!3 +14.305177328768409 y_0!5_1!3 +55.71572770655882 y_0!1_1!4 +93.61285805697489 y_0!2_1!4 -96.53364871666912 y_0!3_1!4 -95.35394656083938 y_0!4_1!4 +28.090314693138993 y_0!5_1!4 -10.189310039093357 y_0!1_1!5 -32.76096455793976 y_0!2_1!5 -69.52996265943337 y_0!3_1!5 +1.0395919623963579 y_0!4_1!5 -12.13381205834068 y_0!5_1!5 + lambda_2!2 - mu_2 = 0
 epc_2!3: -74.12209255803224 y_0!1_1!1 +70.47055576488961 y_0!2_1!1 -42.166327757165355 y_0!3_1!1 -46.30939977065229 y_0!4_1!1 -87.3062026864311 y_0!5_1!1 -75.48072071938708 y_0!1_1!2 +46.920110893935686 y_0!2_1!2 +13.133854027440407 y_0!3_1!2 +57.06729029573734 y_0!4_1!2 -91.82855689728773 y_0!5_1!2 -93.83474565470091 y_0!1_1!3 +56.84351040383487 y_0!2_1!3 -96.4020941512861 y_0!3_1!3 +21.49011698736585 y_0!4_1!3 -63.99599142233552 y_0!5_1!3 +18.78031367269773 y_0!1_1!4 -96.45264749529183 y_0!2_1!4 +96.57774121476709 y_0!3_1!4 -71.72096642395826 y_0!4_1!4 -81.57663043484433 y_0!5_1!4 -14.15389593891257 y_0!1_1!5 -89.57002102918597 y_0!2_1!5 +81.96446438856174 y_0!3_1!5 +85.79949641667267 y_0!4_1!5 +11.2216691292018 y_0!5_1!5 + lambda_2!3 - mu_2 = 0
 epc_2!4: -24.296565667970853 y_0!1_1!1 +55.13320390571798 y_0!2_1!1 +61.322728557234 y_0!3_1!1 +3.0459366102884076 y_0!4_1!1 -8.284667340188307 y_0!5_1!1 -85.55888450851785 y_0!1_1!2 -20.968256789052248 y_0!2_1!2 +32.28808289488717 y_0!3_1!2 +51.46984459911582 y_0!4_1!2 +49.06521876438987 y_0!5_1!2 +2.1643208712046373 y_0!1_1!3 -88.5013818343414 y_0!2_1!3 -42.267661828512715 y_0!3_1!3 -84.55266499305586 y_0!4_1!3 -15.890310357242583 y_0!5_1!3 +24.039121837059312 y_0!1_1!4 +2.149257036821311 y_0!2_1!4 +72.35849381405765 y_0!3_1!4 -24.3689926646028 y_0!4_1!4 +79.81130334711725 y_0!5_1!4 -93.86189284411155 y_0!1_1!5 -47.28645526618887 y_0!2_1!5 +90.85195084594426 y_0!3_1!5 -52.47176683274564 y_0!4_1!5 -89.25158306353988 y_0!5_1!5 + lambda_2!4 - mu_2 = 0
 epc_2!5: -0.7704722759840621 y_0!1_1!1 -20.14715566809089 y_0!2_1!1 -33.890622386538524 y_0!3_1!1 +34.921185061775674 y_0!4_1!1 -34.56468688428399 y_0!5_1!1 -65.17669737234002 y_0!1_1!2 +84.07041734231044 y_0!2_1!2 +97.55080450675572 y_0!3_1!2 -48.29582289274721 y_0!4_1!2 +79.57006282759477 y_0!5_1!2 +15.81766637515669 y_0!1_1!3 +18.480209700545913 y_0!2_1!3 -92.10500713663015 y_0!3_1!3 -41.219916113709345 y_0!4_1!3 -62.45386385643052 y_0!5_1!3 -22.963729526012273 y_0!1_1!4 +89.85182252116772 y_0!2_1!4 -46.209366996468184 y_0!3_1!4 +72.97921597465438 y_0!4_1!4 +13.939300379206188 y_0!5_1!4 -93.57435257051114 y_0!1_1!5 -94.28034657049538 y_0!2_1!5 +40.47715176201905 y_0!3_1!5 +13.39690914392719 y_0!4_1!5 -63.153759333018456 y_0!5_1!5 + lambda_2!5 - mu_2 = 0
 dc_2: x_2!1 + x_2!2 + x_2!3 + x_2!4 + x_2!5 = 1
 bc_2!1: lambda_2!1 +298.0673892134496 x_2!1 <= 298.0673892134496
 bc_2!2: lambda_2!2 +298.0673892134496 x_2!2 <= 298.0673892134496
 bc_2!3: lambda_2!3 +298.0673892134496 x_2!3 <= 298.0673892134496
 bc_2!4: lambda_2!4 +298.0673892134496 x_2!4 <= 298.0673892134496
 bc_2!5: lambda_2!5 +298.0673892134496 x_2!5 <= 298.0673892134496
 sum_2!1: y_0!1_1!1 - x_0!1 - x_1!1 >= -1
 idk_2!1!0: y_0!1_1!1 - x_0!1 <= 0
 idk_2!1!1: y_0!1_1!1 - x_1!1 <= 0
 sum_2!2: y_0!2_1!1 - x_0!2 - x_1!1 >= -1
 idk_2!2!0: y_0!2_1!1 - x_0!2 <= 0
 idk_2!2!1: y_0!2_1!1 - x_1!1 <= 0
 sum_2!3: y_0!3_1!1 - x_0!3 - x_1!1 >= -1
 idk_2!3!0: y_0!3_1!1 - x_0!3 <= 0
 idk_2!3!1: y_0!3_1!1 - x_1!1 <= 0
 sum_2!4: y_0!4_1!1 - x_0!4 - x_1!1 >= -1
 idk_2!4!0: y_0!4_1!1 - x_0!4 <= 0
 idk_2!4!1: y_0!4_1!1 - x_1!1 <= 0
 sum_2!5: y_0!5_1!1 - x_0!5 - x_1!1 >= -1
 idk_2!5!0: y_0!5_1!1 - x_0!5 <= 0
 idk_2!5!1: y_0!5_1!1 - x_1!1 <= 0
 sum_2!6: y_0!1_1!2 - x_0!1 - x_1!2 >= -1
 idk_2!6!0: y_0!1_1!2 - x_0!1 <= 0
 idk_2!6!1: y_0!1_1!2 - x_1!2 <= 0
 sum_2!7: y_0!2_1!2 - x_0!2 - x_1!2 >= -1
 idk_2!7!0: y_0!2_1!2 - x_0!2 <= 0
 idk_2!7!1: y_0!2_1!2 - x_1!2 <= 0
 sum_2!8: y_0!3_1!2 - x_0!3 - x_1!2 >= -1
 idk_2!8!0: y_0!3_1!2 - x_0!3 <= 0
 idk_2!8!1: y_0!3_1!2 - x_1!2 <= 0
 sum_2!9: y_0!4_1!2 - x_0!4 - x_1!2 >= -1
 idk_2!9!0: y_0!4_1!2 - x_0!4 <= 0
 idk_2!9!1: y_0!4_1!2 - x_1!2 <= 0
 sum_2!10: y_0!5_1!2 - x_0!5 - x_1!2 >= -1
 idk_2!10!0: y_0!5_1!2 - x_0!5 <= 0
 idk_2!10!1: y_0!5_1!2 - x_1!2 <= 0
 sum_2!11: y_0!1_1!3 - x_0!1 - x_1!3 >= -1
 idk_2!11!0: y_0!1_1!3 - x_0!1 <= 0
 idk_2!11!1: y_0!1_1!3 - x_1!3 <= 0
 sum_2!12: y_0!2_1!3 - x_0!2 - x_1!3 >= -1
 idk_2!12!0: y_0!2_1!3 - x_0!2 <= 0
 idk_2!12!1: y_0!2_1!3 - x_1!3 <= 0
 sum_2!13: y_0!3_1!3 - x_0!3 - x_1!3 >= -1
 idk_2!13!0: y_0!3_1!3 - x_0!3 <= 0
 idk_2!13!1: y_0!3_1!3 - x_1!3 <= 0
 sum_2!14: y_0!4_1!3 - x_0!4 - x_1!3 >= -1
 idk_2!14!0: y_0!4_1!3 - x_0!4 <= 0
 idk_2!14!1: y_0!4_1!3 - x_1!3 <= 0
 sum_2!15: y_0!5_1!3 - x_0!5 - x_1!3 >= -1
 idk_2!15!0: y_0!5_1!3 - x_0!5 <= 0
 idk_2!15!1: y_0!5_1!3 - x_1!3 <= 0
 sum_2!16: y_0!1_1!4 - x_0!1 - x_1!4 >= -1
 idk_2!16!0: y_0!1_1!4 - x_0!1 <= 0
 idk_2!16!1: y_0!1_1!4 - x_1!4 <= 0
 sum_2!17: y_0!2_1!4 - x_0!2 - x_1!4 >= -1
 idk_2!17!0: y_0!2_1!4 - x_0!2 <= 0
 idk_2!17!1: y_0!2_1!4 - x_1!4 <= 0
 sum_2!18: y_0!3_1!4 - x_0!3 - x_1!4 >= -1
 idk_2!18!0: y_0!3_1!4 - x_0!3 <= 0
 idk_2!18!1: y_0!3_1!4 - x_1!4 <= 0
 sum_2!19: y_0!4_1!4 - x_0!4 - x_1!4 >= -1
 idk_2!19!0: y_0!4_1!4 - x_0!4 <= 0
 idk_2!19!1: y_0!4_1!4 - x_1!4 <= 0
 sum_2!20: y_0!5_1!4 - x_0!5 - x_1!4 >= -1
 idk_2!20!0: y_0!5_1!4 - x_0!5 <= 0
 idk_2!20!1: y_0!5_1!4 - x_1!4 <= 0
 sum_2!21: y_0!1_1!5 - x_0!1 - x_1!5 >= -1
 idk_2!21!0: y_0!1_1!5 - x_0!1 <= 0
 idk_2!21!1: y_0!1_1!5 - x_1!5 <= 0
 sum_2!22: y_0!2_1!5 - x_0!2 - x_1!5 >= -1
 idk_2!22!0: y_0!2_1!5 - x_0!2 <= 0
 idk_2!22!1: y_0!2_1!5 - x_1!5 <= 0
 sum_2!23: y_0!3_1!5 - x_0!3 - x_1!5 >= -1
 idk_2!23!0: y_0!3_1!5 - x_0!3 <= 0
 idk_2!23!1: y_0!3_1!5 - x_1!5 <= 0
 sum_2!24: y_0!4_1!5 - x_0!4 - x_1!5 >= -1
 idk_2!24!0: y_0!4_1!5 - x_0!4 <= 0
 idk_2!24!1: y_0!4_1!5 - x_1!5 <= 0
 sum_2!25: y_0!5_1!5 - x_0!5 - x_1!5 >= -1
 idk_2!25!0: y_0!5_1!5 - x_0!5 <= 0
 idk_2!25!1: y_0!5_1!5 - x_1!5 <= 0
Bounds
 mu_0 free
 mu_1 free
 mu_2 free
Binary
 x_0!1 x_0!2 x_0!3 x_0!4 x_0!5 x_1!1 x_1!2 x_1!3 x_1!4 x_1!5 x_2!1 x_2!2 x_2!3 x_2!4 x_2!5
End
